#######  Datos del problema MTZ

set NODES := 1 2 3 4 ; 
set ARCS  := (1,2) (1,3) (1,4)
                     (2,1) (2,3) (2,4)
                     (3,1) (3,2) (3,4)
                     (4,1) (4,2) (4,3) ;                   
		             
param: 	c :=	    
1	2	30		
1	3	25     
1	4	3     
2	1	20
2	3	5
2	4	21
3	1	23
3	2	7
3	4	26
4   1   4 
4   2  27
4   3  25 ;

param p := 4 ; #NUMERO DE CIUDADES